n = 3;
m = 3;
k = 4;

% soddisfacibile senza rotazione
colors = [| 4, 3, 2, 1| 4, 3, 1, 2 | 4, 1, 2, 3| 3, 1, 4, 2| 2, 1, 4, 3| 4, 1, 3, 2 | 4, 2, 3, 1| 2, 1, 4, 3| 2, 3, 4, 1|];

% soddisfacibile con rotazione
%colors = [| 3, 2, 1, 4| 1, 2, 4, 3 | 4, 1, 2, 3| 2, 3, 1, 4| 3, 2, 1, 4| 2, 4, 1, 3 | 4, 2, 3, 1| 2, 1, 4, 3| 2, 3, 4, 1|];
